s = 4;
t = 7;

n = 10;
%		 0  1  2  3  4  5  6  7  8  9 
mtx = [| 0,16,10, 0, 0, 0, 0, 8, 0, 0,  % 0
	   |16, 0, 0,18, 0,50, 0, 0, 0,42,	% 1
	   |10, 0, 0,50, 0, 0, 0,20, 0, 0,	% 2
	   | 0,18,50, 0, 0, 0, 0,30,15, 0,	% 3
	   | 0, 0, 0, 0, 0, 9, 3, 0,30, 0,	% 4
	   | 0,50, 0, 0, 9, 0,10, 0,16,10,	% 5
	   | 0, 0, 0, 0, 3,10, 0, 0, 0, 0,	% 6
	   | 8, 0,20,30, 0, 0, 0, 0, 0, 0,	% 7
	   | 0, 0, 0,15,30,16, 0, 0, 0, 8,	% 8
	   | 0,42, 0, 0, 0,10, 0, 0, 8, 0|];% 9
	   


